nNurses = 149;
nHours = 39;
minHours = 4;
maxHours = 14;
maxConsec = 14;
maxPresence = 32;
demand = [27, 22, 19, 14, 9, 7, 12, 8, 6, 10, 13, 16, 11, 11, 8, 11, 6, 10, 12, 9, 11, 7, 6, 10, 8, 10, 15, 16, 13, 11, 6, 11, 6, 6, 10, 15, 15, 12, 11];
